Al  H  C  N  O Si                       
   1.00000000000000     
    13.6750000000000007    0.0000000000000000    0.0000000000000000
    -6.8374999999999977   11.8428973967521998    0.0000000000000000
     0.0000000000000000    0.0000000000000000   14.7669999999999995
   Al   H    C    N    O    Si
     3    72    39     3    72    33
Selective dynamics
Direct
  0.7735998006411862  0.7732997840977234  0.1050998848784417   F   F   F
  0.6669664629544201  0.1069332915395620  0.2282332227263524   F   F   F
  0.5597331548714024  0.6663664925581685  0.5615663303311464   F   F   F
  0.8032581075583940  0.9827568795912911  0.3998939105106311   T   T   T
  0.9769951441810453  0.9014605736313097  0.2810896507187513   T   T   T
  0.1143895158482980  0.1611919983989798  0.3815174240765973   T   T   T
  0.1029660002943972  0.9636874144881258  0.3447154306250949   T   T   T
  0.0517897908591544  0.0906711251329183  0.2751641554522007   T   T   T
  0.8046260801086093  0.8425306359332925  0.3806816264829541   T   T   T
  0.9960578766248743  0.8335691535917343  0.3789712703169259   T   T   T
  0.9725348378445271  0.1382717656249916  0.3605551323841757   T   T   T
  0.8293412225939857  0.9329428163026140  0.2947804850096040   T   T   T
  0.8469599016865369  0.8124741247392243  0.5229649547769359   T   T   T
  0.9773677319725153  0.8281124910576404  0.4989136502862733   T   T   T
  0.9730228842803361  0.1332005393394437  0.5192065723148261   T   T   T
  0.1456962143293645  0.1426950329209583  0.4961958939027922   T   T   T
  0.8432164753144733  0.0160857582741354  0.5076470445131569   T   T   T
  0.1526213080762948  0.0153546829981330  0.4854769439410671   T   T   T
  0.2090211910901521  0.1197665107885355  0.6456400486091040   T   T   T
  0.9348311159657652  0.7785140708564645  0.6504307111333524   T   T   T
  0.8811695403133055  0.0797627362931471  0.6746818887200332   T   T   T
  0.1299852332903571  0.9068060401850215  0.6253012110126531   T   T   T
  0.0792990015761899  0.1940953411038310  0.6433080830174400   T   T   T
  0.8984981452642024  0.9325346799005293  0.7545293545903375   T   T   T
  0.7974095715522592  0.8709774277339595  0.6562941469505981   T   T   T
  0.0564351641841057  0.1159072819562663  0.7460402109857145   T   T   T
  0.1000111581067172  0.9449341649537303  0.7320728341595434   T   T   T
  0.6821619703441156  0.1607737044185773  0.9275222691882750   T   T   T
  0.7835456958958921  0.4035400574645410  0.0615645829850931   T   T   T
  0.6074742106751878  0.3016919386586142  0.0775982793096149   T   T   T
  0.8314875060809426  0.4737494069049957  0.9533412371028542   T   T   T
  0.5027795230510658  0.2618225216128305  0.9905839342919212   T   T   T
  0.6627933791090685  0.1852559879612305  0.0524689859575074   T   T   T
  0.8421007346123540  0.3531881588517491  0.9909939423588658   T   T   T
  0.5998166423932574  0.4039201337083961  0.0114114994310996   T   T   T
  0.5491961001067759  0.1278658790630878  0.9617633415917198   T   T   T
  0.7496318980817858  0.2211875884000315  0.8035881682796822   T   T   T
  0.8460046153294578  0.3686958773931315  0.8101238300310409   T   T   T
  0.4736777457549600  0.2439900335513994  0.8451409004767844   T   T   T
  0.6085635146743187  0.4510838705322188  0.8404291847895838   T   T   T
  0.5190048523450160  0.1443303136300105  0.8256008032514446   T   T   T
  0.7718189725939244  0.5235159826329404  0.8396629098122469   T   T   T
  0.6866934716476460  0.5380633192545630  0.6964749877500390   T   T   T
  0.8126259586848019  0.3081337449576098  0.6545793547400347   T   T   T
  0.4510910018466639  0.1857236652558602  0.6879748273344428   T   T   T
  0.8564201942222496  0.4966816496455708  0.7119346173492331   T   T   T
  0.4980055485065521  0.3820386153715464  0.7140709533521287   T   T   T
  0.6359105119287033  0.2267793138899113  0.5860491301627384   T   T   T
  0.6131821088497745  0.1449248242931961  0.6846354253847576   T   T   T
  0.5681963860203539  0.3888037373636271  0.6079691615110959   T   T   T
  0.7943949616029485  0.4512587263735049  0.5948868819880200   T   T   T
  0.5696509880805855  0.7625524335106192  0.3439994840335817   T   T   T
  0.3947451539863255  0.7334612837135057  0.3986448832552611   T   T   T
  0.3851726301053965  0.5623422307929246  0.3808547813037950   T   T   T
  0.2935706922830148  0.7191588073692203  0.3158491694024742   T   T   T
  0.3737108593144126  0.5116239853189519  0.2604441936533816   T   T   T
  0.5934295950201891  0.6913501795311887  0.2470079423826133   T   T   T
  0.4183150148064392  0.8390368395933548  0.3076442190777385   T   T   T
  0.2695402921984777  0.5359460646149978  0.3090814401202403   T   T   T
  0.5956371483040194  0.8194866006534219  0.2307311635397840   T   T   T
  0.4705900127529372  0.8294326508845973  0.1564931457412732   T   T   T
  0.3431701064229263  0.8198011980424511  0.1902694763825876   T   T   T
  0.4426050697904705  0.5682928765081825  0.1325674066627471   T   T   T
  0.2261526276379489  0.4927468783490576  0.1806477495871061   T   T   T
  0.5265268102977055  0.7110119257922333  0.1099136444119127   T   T   T
  0.1857468747849293  0.5925812976734605  0.2181102746440468   T   T   T
  0.1013384282028044  0.5142418478726052  0.0800794383337668   T   T   T
  0.3618794889982399  0.8678383814277173  0.0250594004464771   T   T   T
  0.4562467638937697  0.6274798888461626  0.9662815173112360   T   T   T
  0.1589202936737937  0.7112152320203238  0.0805451489320312   T   T   T
  0.2355898083023546  0.4512144323983390  0.0178040348192339   T   T   T
  0.3667970677547600  0.7221819473618822  0.9105759034036667   T   T   T
  0.4916378620448137  0.8123149974603857  0.9784287497983511   T   T   T
  0.2568511445551354  0.5557537476522115  0.9366883265516095   T   T   T
  0.1820774138415736  0.6725727114250282  0.9655951928652494   T   T   T
  0.0252882658406478  0.0977040021917348  0.3495887806517511   T   T   T
  0.0140759634082340  0.9210709583158251  0.3465741269760839   T   T   T
  0.8437018069451040  0.9306612155976697  0.3681453365755511   T   T   T
  0.9780257020952178  0.9824997742660062  0.4999457966680828   T   T   T
  0.9363453772111568  0.8618432573992977  0.5335409851445089   T   T   T
  0.1140133979745016  0.0626282151987059  0.5197818236176088   T   T   T
  0.9212455731664509  0.0431023057281676  0.5408272465102312   T   T   T
  0.1264640579184605  0.0644077692115288  0.6261266055659369   T   T   T
  0.9503941576931250  0.8636972085934819  0.6325728732952151   T   T   T
  0.9232020802029459  0.0327331803941964  0.6408372976714701   T   T   T
  0.0472626178374735  0.1008502271303340  0.6734525051034218   T   T   T
  0.8875707985153465  0.9125028200688728  0.6766840132960777   T   T   T
  0.0729935059146912  0.9351918494077605  0.6559080189103672   T   T   T
  0.5889660723709338  0.3203471098348092  0.0111548760735270   T   T   T
  0.7872464280257427  0.3910614711458364  0.9890555765067145   T   T   T
  0.6413283753229498  0.1883300213618974  0.9776416503324262   T   T   T
  0.6679252403617923  0.3226035928302380  0.8513819031204544   T   T   T
  0.7595431249030027  0.3080285479360564  0.7986187014772287   T   T   T
  0.6844528530799938  0.4405142834977440  0.8252412820223894   T   T   T
  0.5466405198704887  0.2361346657431328  0.8142267664857110   T   T   T
  0.6771763445146870  0.4546502932503501  0.7153149421324948   T   T   T
  0.7449754985963644  0.3126798477210446  0.6977494402116041   T   T   T
  0.5433156935464987  0.2492890008905291  0.7080068013296182   T   T   T
  0.5590759127981039  0.3651108809263836  0.6825327044061521   T   T   T
  0.6345454486512919  0.2301343809053353  0.6655812987855543   T   T   T
  0.7736200394074052  0.4412441402150989  0.6759509190624383   T   T   T
  0.3613106731163013  0.5635203310437912  0.3096727257979445   T   T   T
  0.3772935650539188  0.7535196129643292  0.3306138336747330   T   T   T
  0.5417981969452704  0.7315231682936156  0.2761483744214783   T   T   T
  0.3664530631541549  0.6715215203275660  0.1694819607952355   T   T   T
  0.3814124006495711  0.7861800026123374  0.1427643322440217   T   T   T
  0.2443523675735763  0.5839075038279004  0.1687452386442568   T   T   T
  0.4360733024574204  0.6412002553380689  0.1093692218991242   T   T   T
  0.1944878277041924  0.5771147527115524  0.0716648986427785   T   T   T
  0.3441474441470403  0.7808261989328806  0.0493641058953226   T   T   T
  0.3971424091832602  0.6312553374425709  0.0125955892649665   T   T   T
  0.2632993167895747  0.5434376881195138  0.0042716611407026   T   T   T
  0.4034996221947853  0.7407041898466902  0.9778095724610867   T   T   T
  0.2127242184692254  0.6891917980065477  0.0362250765397424   T   T   T
  0.9683573547994235  0.9820730637324270  0.3941112485412651   T   T   T
  0.6735370334873308  0.3024213867294274  0.9572344489529072   T   T   T
  0.4201750271863581  0.6815964835935173  0.2710329218163281   T   T   T
  0.9020016616030304  0.0979996668989358  0.1226999390532910   F   F   F
  0.9767025460031817  0.3100997903610292  0.1667000744904144   F   F   F
  0.1203001523737655  0.2405002681844621  0.1314999661407157   F   F   F
  0.0000000775168232  0.2576996065875719  0.0000000000000000   F   F   F
  0.9020000208146399  0.8040000416292727  0.1226999390532910   F   F   F
  0.1960001990801814  0.0979996668989358  0.1226999390532910   F   F   F
  0.0979999108273759  0.9020005529161708  0.8773007381323197   F   F   F
  0.0980000890929205  0.1960001781858338  0.8773007381323197   F   F   F
  0.8040006420888020  0.9020005529161708  0.8773007381323197   F   F   F
  0.5686671838453563  0.4313336364292795  0.4560330466580922   F   F   F
  0.5686664734782738  0.1373329469565476  0.4560330466580922   F   F   F
  0.8626671838453532  0.4313336364292795  0.4560330466580922   F   F   F
  0.7646670947524328  0.2353334582434456  0.2106331685515030   F   F   F
  0.7646666516641076  0.5293333033282153  0.2106331685515030   F   F   F
  0.4706670947524358  0.2353334582434456  0.2106331685515030   F   F   F
  0.2353330151551205  0.7646667615716609  0.7893681858197326   F   F   F
  0.2353334582434456  0.4706669164868913  0.7893681858197326   F   F   F
  0.5293330151551174  0.7646667615716609  0.7893681858197326   F   F   F
  0.4313336573236271  0.5686665833858271  0.5439669533419078   F   F   F
  0.4313344808172417  0.8626689616344905  0.5439669533419078   F   F   F
  0.1373329260622000  0.5686665833858271  0.5439669533419078   F   F   F
  0.6899005596425667  0.6666003880237099  0.1667000744904144   F   F   F
  0.3333999293075109  0.0233000414303746  0.1667000744904144   F   F   F
  0.3100310573239398  0.9767626630939432  0.8333649353287740   F   F   F
  0.0232328436159719  0.3332664184933662  0.8333649353287740   F   F   F
  0.6667330544498924  0.6899662917151375  0.8333649353287740   F   F   F
  0.0232332372652451  0.6899662917151375  0.8333649353287740   F   F   F
  0.3100335748773944  0.3332664184933662  0.8333649353287740   F   F   F
  0.6667316057700035  0.9767626630939432  0.8333649353287740   F   F   F
  0.6899001121228636  0.0233000414303746  0.1667000744904144   F   F   F
  0.9767005596425662  0.6666003880237099  0.1667000744904144   F   F   F
  0.3334001694035464  0.3100997903610292  0.1667000744904144   F   F   F
  0.6433661835286699  0.6434329155034106  0.5000331820952155   F   F   F
  0.3565667000197763  0.9999326687781291  0.5000331820952155   F   F   F
  0.0000664918786981  0.3566331665727560  0.5000331820952155   F   F   F
  0.3565666746940579  0.3566331665727560  0.5000331820952155   F   F   F
  0.6433667000197758  0.9999326687781291  0.5000331820952155   F   F   F
  0.0000667319747407  0.6434329155034106  0.5000331820952155   F   F   F
  0.7595007966942902  0.8798015933885779  0.1314999661407157   F   F   F
  0.1202004076395866  0.8797002668331046  0.1314999661407157   F   F   F
  0.2405001576012324  0.1202003152024602  0.8684973251168131   F   F   F
  0.8797989710065437  0.1202999529820019  0.8684973251168131   F   F   F
  0.8797002500383542  0.7594999516306444  0.8684973251168131   F   F   F
  0.7869664224403863  0.5738333933268507  0.4648330737455169   F   F   F
  0.4261668271639394  0.2131336543278834  0.4648330737455169   F   F   F
  0.7868668603032205  0.2130331721603795  0.4648330737455169   F   F   F
  0.9071667201724196  0.4535334403448417  0.2018331414640784   F   F   F
  0.5464662648391609  0.4536330781243905  0.2018331414640784   F   F   F
  0.5463671248959727  0.0928337013458815  0.2018331414640784   F   F   F
  0.4536341219041162  0.9071682072451566  0.7981648269790753   F   F   F
  0.0928333897351337  0.5464667794702649  0.7981648269790753   F   F   F
  0.4535334228744148  0.5463662973027610  0.7981648269790753   F   F   F
  0.5738332827436139  0.7868665654872231  0.5351669262544831   F   F   F
  0.2131332496043328  0.7869670476547341  0.5351669262544831   F   F   F
  0.2130333949625935  0.4261668264882630  0.5351669262544831   F   F   F
  0.7423001586428271  0.7422997688395796  0.0000000000000000   F   F   F
  0.2577001828153556  0.0000000000000000  0.0000000000000000   F   F   F
  0.9999996101967525  0.7422997688395796  0.0000000000000000   F   F   F
  0.2576995290707487  0.2576996065875719  0.0000000000000000   F   F   F
  0.7423034734917735  0.0000000000000000  0.0000000000000000   F   F   F
  0.6666670622819950  0.5910335761179155  0.3333331076047941   F   F   F
  0.4089669490616430  0.0756333496772186  0.3333331076047941   F   F   F
  0.9243630890794208  0.3333331251423814  0.3333331076047941   F   F   F
  0.6666664006155756  0.0756333496772186  0.3333331076047941   F   F   F
  0.9243665138359205  0.5910335761179155  0.3333331076047941   F   F   F
  0.4089663797558316  0.3333331251423814  0.3333331076047941   F   F   F
  0.3333344692411444  0.9243683900362214  0.6666668923952059   F   F   F
  0.0756335960716328  0.4089666436971982  0.6666668923952059   F   F   F
  0.5910333079577370  0.6666662502847629  0.6666668923952059   F   F   F
  0.3333330476255654  0.4089666436971982  0.6666668923952059   F   F   F
  0.5910339207950770  0.9243683900362214  0.6666668923952059   F   F   F
  0.0756329423270259  0.6666662502847629  0.6666668923952059   F   F   F
  0.2266999141138157  0.0003000110429880  0.1050998848784417   F   F   F
  0.4399667751155718  0.3330333674157799  0.2282332227263524   F   F   F
  0.5597313234388466  0.8933624640623350  0.5615663303311464   F   F   F
  0.9997008308781972  0.2263998336028195  0.1050998848784417   F   F   F
  0.2263980286666722  0.9996962401487011  0.8949007923071690   F   F   F
  0.0002997042570314  0.2266995913294210  0.8949007923071690   F   F   F
  0.7733003759215009  0.7736003862122871  0.8949007923071690   F   F   F
  0.0003000102907862  0.7736003862122871  0.8949007923071690   F   F   F
  0.2263998870723896  0.2266995913294210  0.8949007923071690   F   F   F
  0.7732982114820288  0.9996962401487011  0.8949007923071690   F   F   F
  0.7735979031448963  0.0003000110429880  0.1050998848784417   F   F   F
  0.9996999834565443  0.7732997840977234  0.1050998848784417   F   F   F
  0.2266997339860524  0.2263998336028195  0.1050998848784417   F   F   F
  0.6663666621879614  0.5597329587452080  0.4384329924832429   F   F   F
  0.4402666754988047  0.1066335338129605  0.4384329924832429   F   F   F
  0.8933667722207943  0.3336337272569452  0.4384329924832429   F   F   F
  0.8930665923002152  0.3330333674157799  0.2282332227263524   F   F   F
  0.6669666890222032  0.5600335608597646  0.2282332227263524   F   F   F
  0.4399668285851348  0.1069332915395620  0.2282332227263524   F   F   F
  0.8930668718375614  0.5600335608597646  0.2282332227263524   F   F   F
  0.4402669550361509  0.3336337272569452  0.4384329924832429   F   F   F
  0.6663668583141558  0.1066335338129605  0.4384329924832429   F   F   F
  0.8933662965572466  0.5597329587452080  0.4384329924832429   F   F   F
  0.3330336469531332  0.8930669282755517  0.7717681316448832   F   F   F
  0.1069332380699919  0.4399666589553419  0.7717681316448832   F   F   F
  0.5600333347919886  0.6669668523993266  0.7717681316448832   F   F   F
  0.3336311406234884  0.8933624640623350  0.5615663303311464   F   F   F
  0.1066333911563291  0.4402664166819434  0.5615663303311464   F   F   F
  0.3336330255256144  0.4402664166819434  0.5615663303311464   F   F   F
  0.1066333376867590  0.6663664925581685  0.5615663303311464   F   F   F
  0.1069335176073452  0.6669668523993266  0.7717681316448832   F   F   F
  0.3330334208853500  0.4399666589553419  0.7717681316448832   F   F   F
  0.5600332813224185  0.8930669282755517  0.7717681316448832   F   F   F
 
  0.00000000E+00  0.00000000E+00  0.00000000E+00
  0.00000000E+00  0.00000000E+00  0.00000000E+00
  0.00000000E+00  0.00000000E+00  0.00000000E+00
  0.61075917E-02  0.26250073E-01  0.79243917E-02
 -0.29416332E-01 -0.12881068E-01 -0.10783403E-01
  0.23166872E-01  0.15892762E-01 -0.24192172E-01
 -0.21544662E-01 -0.13883181E-01  0.17900313E-01
  0.11665902E-01  0.14791635E-01 -0.18597968E-01
 -0.22959896E-02  0.66944217E-02 -0.31944388E-02
  0.23791511E-01 -0.12579772E-02  0.96800319E-02
  0.91228625E-02 -0.31528594E-01 -0.38603840E-02
  0.10440711E-01 -0.11734824E-02 -0.46747832E-02
 -0.18025906E-01 -0.34783261E-02 -0.15936569E-01
  0.94844592E-02  0.80917529E-02 -0.45884678E-02
  0.13171083E-01 -0.64401974E-02  0.23656242E-02
 -0.34890205E-01 -0.12173048E-01 -0.74425199E-02
  0.45743207E-02 -0.75317485E-02  0.22838254E-01
 -0.84039077E-02  0.37090929E-01  0.11444622E-01
 -0.21723508E-01 -0.22384403E-01 -0.53091579E-02
  0.14137051E-01 -0.13737586E-01  0.16507409E-01
 -0.60684094E-02 -0.16180812E-01  0.13133898E-01
 -0.11621109E-01 -0.14733938E-01 -0.11232229E-01
 -0.22501401E-01 -0.18684231E-01  0.19497394E-01
 -0.19844087E-01 -0.25623529E-01 -0.83252353E-02
 -0.18451899E-01 -0.23935391E-02  0.25722118E-01
  0.72799545E-02  0.13015213E-01 -0.21473989E-01
  0.84099245E-02 -0.16027529E-01 -0.98360747E-02
  0.16596203E-01 -0.83638616E-02 -0.10576572E-01
  0.62096739E-02 -0.94560901E-02  0.10587330E-01
  0.16596850E-01 -0.22948221E-01  0.21278073E-01
 -0.11728016E-01  0.24392159E-01 -0.12349549E-01
  0.90244760E-02  0.12819944E-01 -0.62850803E-02
 -0.12325786E-01  0.50079519E-02  0.27261250E-01
 -0.25230739E-02  0.51509235E-02  0.13658531E-01
 -0.29780520E-01  0.12052834E-01 -0.17902841E-01
  0.15057236E-01  0.11164958E-01 -0.18417867E-01
  0.39221319E-02  0.17152395E-01  0.68067141E-02
  0.12257435E-01  0.65737532E-02 -0.22143911E-02
 -0.12435897E-01 -0.10714466E-01  0.88226680E-02
  0.10627901E-01  0.26583086E-01 -0.13363701E-01
  0.72536016E-02  0.80045934E-02  0.33074344E-02
 -0.10580136E-01 -0.21968590E-02  0.43811035E-02
  0.26937914E-01  0.13960961E-01 -0.41721220E-02
  0.75668179E-02 -0.17430134E-01  0.11989753E-01
  0.17836659E-02 -0.10615310E-01  0.17033547E-01
 -0.21484793E-01 -0.21858251E-01  0.22205940E-01
 -0.63734407E-02  0.32063627E-01  0.13215588E-01
  0.27603432E-01  0.68903030E-02 -0.92973201E-02
  0.10014081E-01 -0.66456695E-02 -0.24174901E-01
  0.20857220E-01  0.19313110E-01  0.14974872E-01
  0.92905671E-03 -0.18266512E-02 -0.75063039E-02
 -0.11753567E-02 -0.15825870E-01 -0.91509361E-02
 -0.25444461E-01  0.25726269E-01  0.18944960E-01
 -0.16026580E-01 -0.11536803E-01 -0.50154318E-02
 -0.11820948E-02 -0.22161198E-01 -0.60058347E-02
  0.52039318E-03 -0.15927139E-01 -0.27065440E-01
  0.54226247E-02 -0.25480668E-02  0.14294807E-01
 -0.29490590E-01  0.43020717E-02 -0.82977291E-02
 -0.13364576E-02 -0.15501642E-01  0.25174632E-01
 -0.36427737E-03  0.25253878E-02 -0.24953578E-02
 -0.10532005E-01  0.83053805E-03  0.15515611E-01
 -0.13717400E-01 -0.25916197E-01  0.14978160E-02
  0.19834381E-01  0.11970933E-01 -0.11954230E-01
  0.19313797E-01  0.51484954E-02  0.10405892E-01
 -0.11349815E-01  0.12673359E-01  0.30459426E-02
  0.21939037E-01 -0.34674884E-02  0.56923663E-02
 -0.56736405E-02 -0.42733553E-02  0.24701320E-01
 -0.92413258E-02 -0.15568327E-01 -0.25846121E-01
 -0.98621120E-02 -0.19881254E-02  0.13856236E-01
 -0.17943444E-01 -0.13117940E-01  0.31040619E-01
 -0.99275796E-02  0.83235357E-02  0.30504934E-02
 -0.14192685E-02 -0.15470493E-01 -0.15332056E-01
 -0.30383763E-02 -0.56483141E-02  0.10522579E-01
  0.13208174E-01  0.23067906E-01 -0.87446208E-02
  0.17574925E-01 -0.17877478E-03  0.29741240E-01
  0.19224152E-02  0.56844728E-02 -0.66020295E-02
  0.26738461E-02 -0.40287865E-02 -0.37452482E-02
 -0.63932763E-02 -0.45608896E-02  0.78993833E-02
  0.47603528E-02  0.26904640E-02 -0.18938300E-01
 -0.30943530E-02  0.57211849E-03  0.65400861E-02
  0.28616863E-02 -0.97012460E-02 -0.50743959E-02
 -0.11831155E-02 -0.34610041E-02 -0.34796093E-02
  0.47576342E-02  0.77879459E-02 -0.97463386E-02
  0.21936561E-02  0.11183241E-01  0.46718228E-02
 -0.17913515E-02  0.14594776E-01  0.11056287E-02
  0.40001969E-03 -0.33395498E-02  0.12367315E-01
 -0.22392484E-02  0.68353474E-02  0.27763243E-02
 -0.34792071E-02  0.56650466E-02  0.18353755E-02
  0.40398694E-02 -0.27582955E-02  0.42991109E-02
 -0.48410871E-02 -0.16435533E-02  0.51511138E-02
 -0.80293037E-03 -0.81463370E-03 -0.27063892E-02
 -0.24739913E-02  0.35667721E-02  0.91428181E-03
 -0.61169661E-03 -0.32125820E-02  0.10341580E-03
 -0.29844595E-03  0.15119190E-01  0.70191558E-02
 -0.10520563E-01  0.12099130E-01 -0.48955314E-02
 -0.62398726E-02 -0.78219592E-02 -0.66627974E-02
 -0.11805652E-01 -0.39929837E-03  0.35085937E-02
  0.64900751E-02 -0.90390565E-02 -0.40456367E-02
  0.42574825E-02  0.74514795E-02 -0.12103432E-01
 -0.17726533E-02 -0.16066259E-01  0.46433554E-02
  0.52381480E-02  0.43650986E-02 -0.73860350E-02
  0.37915906E-02  0.33593270E-02  0.81255695E-02
  0.26058941E-02 -0.62630525E-02 -0.58901882E-02
  0.43771386E-04 -0.63841505E-02 -0.74688225E-02
  0.83466350E-02 -0.15097229E-01  0.89753919E-02
 -0.59205928E-03 -0.97796575E-02  0.91474344E-02
  0.11590677E-01 -0.19904459E-02  0.98710617E-02
  0.67426464E-02  0.64275121E-02  0.96007983E-02
 -0.13247031E-01  0.58233257E-02 -0.38534615E-02
 -0.10857387E-01 -0.16113940E-02 -0.94378152E-02
 -0.43879324E-02  0.34312607E-02  0.55072698E-03
  0.12108720E-01  0.11698419E-01  0.65429015E-02
  0.92131218E-02  0.32603809E-02  0.24352063E-01
  0.24423699E-02 -0.76009749E-02  0.42140708E-04
 -0.27847963E-02 -0.32164947E-02  0.22014885E-02
  0.63343673E-02  0.84690102E-02  0.15991923E-02
 -0.33490926E-02 -0.13130271E-01 -0.54416582E-02
  0.00000000E+00  0.00000000E+00  0.00000000E+00
  0.00000000E+00  0.00000000E+00  0.00000000E+00
  0.00000000E+00  0.00000000E+00  0.00000000E+00
  0.00000000E+00  0.00000000E+00  0.00000000E+00
  0.00000000E+00  0.00000000E+00  0.00000000E+00
  0.00000000E+00  0.00000000E+00  0.00000000E+00
  0.00000000E+00  0.00000000E+00  0.00000000E+00
  0.00000000E+00  0.00000000E+00  0.00000000E+00
  0.00000000E+00  0.00000000E+00  0.00000000E+00
  0.00000000E+00  0.00000000E+00  0.00000000E+00
  0.00000000E+00  0.00000000E+00  0.00000000E+00
  0.00000000E+00  0.00000000E+00  0.00000000E+00
  0.00000000E+00  0.00000000E+00  0.00000000E+00
  0.00000000E+00  0.00000000E+00  0.00000000E+00
  0.00000000E+00  0.00000000E+00  0.00000000E+00
  0.00000000E+00  0.00000000E+00  0.00000000E+00
  0.00000000E+00  0.00000000E+00  0.00000000E+00
  0.00000000E+00  0.00000000E+00  0.00000000E+00
  0.00000000E+00  0.00000000E+00  0.00000000E+00
  0.00000000E+00  0.00000000E+00  0.00000000E+00
  0.00000000E+00  0.00000000E+00  0.00000000E+00
  0.00000000E+00  0.00000000E+00  0.00000000E+00
  0.00000000E+00  0.00000000E+00  0.00000000E+00
  0.00000000E+00  0.00000000E+00  0.00000000E+00
  0.00000000E+00  0.00000000E+00  0.00000000E+00
  0.00000000E+00  0.00000000E+00  0.00000000E+00
  0.00000000E+00  0.00000000E+00  0.00000000E+00
  0.00000000E+00  0.00000000E+00  0.00000000E+00
  0.00000000E+00  0.00000000E+00  0.00000000E+00
  0.00000000E+00  0.00000000E+00  0.00000000E+00
  0.00000000E+00  0.00000000E+00  0.00000000E+00
  0.00000000E+00  0.00000000E+00  0.00000000E+00
  0.00000000E+00  0.00000000E+00  0.00000000E+00
  0.00000000E+00  0.00000000E+00  0.00000000E+00
  0.00000000E+00  0.00000000E+00  0.00000000E+00
  0.00000000E+00  0.00000000E+00  0.00000000E+00
  0.00000000E+00  0.00000000E+00  0.00000000E+00
  0.00000000E+00  0.00000000E+00  0.00000000E+00
  0.00000000E+00  0.00000000E+00  0.00000000E+00
  0.00000000E+00  0.00000000E+00  0.00000000E+00
  0.00000000E+00  0.00000000E+00  0.00000000E+00
  0.00000000E+00  0.00000000E+00  0.00000000E+00
  0.00000000E+00  0.00000000E+00  0.00000000E+00
  0.00000000E+00  0.00000000E+00  0.00000000E+00
  0.00000000E+00  0.00000000E+00  0.00000000E+00
  0.00000000E+00  0.00000000E+00  0.00000000E+00
  0.00000000E+00  0.00000000E+00  0.00000000E+00
  0.00000000E+00  0.00000000E+00  0.00000000E+00
  0.00000000E+00  0.00000000E+00  0.00000000E+00
  0.00000000E+00  0.00000000E+00  0.00000000E+00
  0.00000000E+00  0.00000000E+00  0.00000000E+00
  0.00000000E+00  0.00000000E+00  0.00000000E+00
  0.00000000E+00  0.00000000E+00  0.00000000E+00
  0.00000000E+00  0.00000000E+00  0.00000000E+00
  0.00000000E+00  0.00000000E+00  0.00000000E+00
  0.00000000E+00  0.00000000E+00  0.00000000E+00
  0.00000000E+00  0.00000000E+00  0.00000000E+00
  0.00000000E+00  0.00000000E+00  0.00000000E+00
  0.00000000E+00  0.00000000E+00  0.00000000E+00
  0.00000000E+00  0.00000000E+00  0.00000000E+00
  0.00000000E+00  0.00000000E+00  0.00000000E+00
  0.00000000E+00  0.00000000E+00  0.00000000E+00
  0.00000000E+00  0.00000000E+00  0.00000000E+00
  0.00000000E+00  0.00000000E+00  0.00000000E+00
  0.00000000E+00  0.00000000E+00  0.00000000E+00
  0.00000000E+00  0.00000000E+00  0.00000000E+00
  0.00000000E+00  0.00000000E+00  0.00000000E+00
  0.00000000E+00  0.00000000E+00  0.00000000E+00
  0.00000000E+00  0.00000000E+00  0.00000000E+00
  0.00000000E+00  0.00000000E+00  0.00000000E+00
  0.00000000E+00  0.00000000E+00  0.00000000E+00
  0.00000000E+00  0.00000000E+00  0.00000000E+00
  0.00000000E+00  0.00000000E+00  0.00000000E+00
  0.00000000E+00  0.00000000E+00  0.00000000E+00
  0.00000000E+00  0.00000000E+00  0.00000000E+00
  0.00000000E+00  0.00000000E+00  0.00000000E+00
  0.00000000E+00  0.00000000E+00  0.00000000E+00
  0.00000000E+00  0.00000000E+00  0.00000000E+00
  0.00000000E+00  0.00000000E+00  0.00000000E+00
  0.00000000E+00  0.00000000E+00  0.00000000E+00
  0.00000000E+00  0.00000000E+00  0.00000000E+00
  0.00000000E+00  0.00000000E+00  0.00000000E+00
  0.00000000E+00  0.00000000E+00  0.00000000E+00
  0.00000000E+00  0.00000000E+00  0.00000000E+00
  0.00000000E+00  0.00000000E+00  0.00000000E+00
  0.00000000E+00  0.00000000E+00  0.00000000E+00
  0.00000000E+00  0.00000000E+00  0.00000000E+00
  0.00000000E+00  0.00000000E+00  0.00000000E+00
  0.00000000E+00  0.00000000E+00  0.00000000E+00
  0.00000000E+00  0.00000000E+00  0.00000000E+00
  0.00000000E+00  0.00000000E+00  0.00000000E+00
  0.00000000E+00  0.00000000E+00  0.00000000E+00
  0.00000000E+00  0.00000000E+00  0.00000000E+00
  0.00000000E+00  0.00000000E+00  0.00000000E+00
  0.00000000E+00  0.00000000E+00  0.00000000E+00
  0.00000000E+00  0.00000000E+00  0.00000000E+00
  0.00000000E+00  0.00000000E+00  0.00000000E+00
  0.00000000E+00  0.00000000E+00  0.00000000E+00
  0.00000000E+00  0.00000000E+00  0.00000000E+00
  0.00000000E+00  0.00000000E+00  0.00000000E+00
  0.00000000E+00  0.00000000E+00  0.00000000E+00
  0.00000000E+00  0.00000000E+00  0.00000000E+00
  0.00000000E+00  0.00000000E+00  0.00000000E+00
  0.00000000E+00  0.00000000E+00  0.00000000E+00
  0.00000000E+00  0.00000000E+00  0.00000000E+00
 
           1
   1.00000000000000     
  0.85840507E+00 -0.18858624E-01 -0.91650899E-17  0.00000000E+00
  0.77359980E+00  0.77329978E+00  0.10509988E+00
  0.66696646E+00  0.10693329E+00  0.22823322E+00
  0.55973315E+00  0.66636649E+00  0.56156633E+00
  0.80481299E+00  0.98497340E+00  0.40043054E+00
  0.97430021E+00  0.90037291E+00  0.28035941E+00
  0.11675460E+00  0.16253396E+00  0.37987916E+00
  0.10080438E+00  0.96251514E+00  0.34592761E+00
  0.53267367E-01  0.91920113E-01  0.27390473E+00
  0.80474082E+00  0.84309590E+00  0.38046530E+00
  0.99774455E+00  0.83346293E+00  0.37962679E+00
  0.97187084E+00  0.13560953E+00  0.36029371E+00
  0.83005517E+00  0.93284373E+00  0.29446392E+00
  0.84549488E+00  0.81218042E+00  0.52188575E+00
  0.97840292E+00  0.82879575E+00  0.49860293E+00
  0.97371413E+00  0.13265674E+00  0.51936677E+00
  0.14263089E+00  0.14166716E+00  0.49569190E+00
  0.84323299E+00  0.15449786E-01  0.50919362E+00
  0.15357272E+00  0.18486596E-01  0.48625196E+00
  0.20648758E+00  0.11787640E+00  0.64528052E+00
  0.93528491E+00  0.77735409E+00  0.65154857E+00
  0.88004264E+00  0.78396448E-01  0.67557130E+00
  0.12851337E+00  0.90556192E+00  0.62454058E+00
  0.76864724E-01  0.19251767E+00  0.64462842E+00
  0.89596521E+00  0.93037106E+00  0.75396558E+00
  0.79595920E+00  0.87077532E+00  0.65803601E+00
  0.57517014E-01  0.11700627E+00  0.74458602E+00
  0.99949471E-01  0.94358082E+00  0.73140675E+00
  0.68302247E+00  0.16006747E+00  0.92680604E+00
  0.78360055E+00  0.40274160E+00  0.62281542E-01
  0.60771901E+00  0.29975422E+00  0.79039200E-01
  0.83165970E+00  0.47580905E+00  0.95250494E+00
  0.50398070E+00  0.26290502E+00  0.99015832E+00
  0.66210347E+00  0.18567885E+00  0.54315079E-01
  0.84213370E+00  0.35362310E+00  0.99191888E+00
  0.59814777E+00  0.40493786E+00  0.10199145E-01
  0.55076856E+00  0.12880863E+00  0.96051611E+00
  0.75064287E+00  0.22263592E+00  0.80404911E+00
  0.84717849E+00  0.36925096E+00  0.80997387E+00
  0.47231600E+00  0.24308532E+00  0.84573836E+00
  0.61046301E+00  0.45332851E+00  0.83952421E+00
  0.51987323E+00  0.14500621E+00  0.82582478E+00
  0.77095254E+00  0.52333048E+00  0.83995959E+00
  0.68925276E+00  0.53924217E+00  0.69619246E+00
  0.81244340E+00  0.30666197E+00  0.65539128E+00
  0.45077326E+00  0.18482732E+00  0.68912831E+00
  0.85392625E+00  0.49483597E+00  0.71343837E+00
  0.49889319E+00  0.38474603E+00  0.71496589E+00
  0.63821995E+00  0.22736112E+00  0.58541953E+00
  0.61363382E+00  0.14436367E+00  0.68299834E+00